193 300 170 175 152 189 191 169 153 186 168 200 195 171 173 200 169 189 178 153 160 158 165 174 180 161 171 164 156 178 192 175 169 186 175 171 199 190 164 151 176 183 150 170 178 174 194 197 187 172 150 171 154 190 196 159 175 191 173 156 194 189 181 162 175 180 157 173 170 172 175 196 179 200 190 181 198 184 152 158 180 177 180 184 166 175 193 165 165 166 171 183 154 177 195 153 156 177 151 176 173 150 196 151 174 160 156 172 194 158 180 198 185 159 181 175 158 174 191 199 164 186 181 193 162 150 171 194 177 172 194 174 197 164 200 170 174 155 192 192 164 197 189 199 155 169 199 189 167 163 187 155 199 167 199 186 167 169 153 168 165 197 192 186 185 191 155 158 197 172 200 185 168 188 157 198 182 155 186 173 168 172 179 192 190 177 151 181 170 154 200 159 175 165 195 